
Gurobi 9.5.0 (win64) logging started Tue Jun  7 15:33:12 2022

Set parameter LogFile to value "C:\Users\kmajd1\Documents\NNRepLayer_v2\demos\examples\tc7_walking_example\repair_inp_out_constraint\repair_net/logs/opt_log_6_7_2022_15_32_48.log"
Gurobi Optimizer version 9.5.0 build v9.5.0rc5 (win64)
Thread count: 8 physical cores, 16 logical processors, using up to 16 threads
Optimize a model with 573 rows, 203 columns and 1551 nonzeros
Model fingerprint: 0xf3f45a3a
Model has 170 quadratic objective terms
Coefficient statistics:
  Matrix range     [9e-03, 3e+01]
  Objective range  [1e-03, 2e-01]
  QObjective range [1e-02, 2e+00]
  Bounds range     [1e+01, 4e+01]
  RHS range        [1e-03, 2e+01]
Presolve removed 367 rows and 15 columns
Presolve time: 0.01s
Presolved: 206 rows, 188 columns, 1160 nonzeros
Presolved model has 170 quadratic objective terms
Ordering time: 0.00s

Barrier statistics:
 Dense cols : 11
 AA' NZ     : 1.387e+03
 Factor NZ  : 2.072e+03
 Factor Ops : 2.998e+04 (less than 1 second per iteration)
 Threads    : 1

                  Objective                Residual
Iter       Primal          Dual         Primal    Dual     Compl     Time
   0   6.42295277e+07 -6.43438436e+07  2.39e+03 7.15e+02  9.33e+05     0s
   1   1.82909741e+07 -1.85053830e+07  1.24e+03 3.71e+02  4.91e+05     0s
   2   1.68890708e+05 -8.16609637e+05  1.21e+02 3.64e+01  6.53e+04     0s
   3   3.57449050e+01 -4.66028469e+05  1.45e+00 4.34e-01  1.86e+03     0s
   4   1.51914927e+01 -1.78251752e+05  2.95e-01 8.84e-02  5.43e+02     0s
   5   1.46593834e+01 -2.47911948e+04  6.55e-03 1.96e-03  6.06e+01     0s
   6   1.42425011e+01 -1.15908905e+02  2.48e-05 7.43e-06  3.14e-01     0s
   7   9.11297730e+00 -2.49441572e+01  6.06e-06 1.81e-06  8.23e-02     0s
   8   7.30285436e+00 -1.19939953e+01  2.45e-06 7.33e-07  4.66e-02     0s
   9   5.41688952e+00  1.19141989e+00  4.63e-07 1.39e-07  1.02e-02     0s
  10   4.90698699e+00  3.09454913e+00  1.42e-07 4.27e-08  4.38e-03     0s
  11   4.78434480e+00  4.32137801e+00  2.31e-08 6.92e-09  1.12e-03     0s
  12   4.75611095e+00  4.66834259e+00  4.06e-09 1.22e-09  2.12e-04     0s
  13   4.75134638e+00  4.73794145e+00  8.24e-13 2.66e-13  3.24e-05     0s
  14   4.75063127e+00  4.75060629e+00  5.68e-13 2.17e-13  6.03e-08     0s
  15   4.75062842e+00  4.75062740e+00  2.29e-09 1.71e-11  2.42e-09     0s
  16   4.75062837e+00  4.75062831e+00  3.20e-09 3.55e-09  3.88e-11     0s

Barrier solved model in 16 iterations and 0.04 seconds (0.00 work units)
Optimal objective 4.75062837e+00

